============================[ Problem Statistics ]=============================|                                                                             ||  Number of variables:          4242                                         ||  Number of clauses:            9970                                         ||  Parse time:                   0.37 s                                       ||                                                                             |============================[ Search Statistics ]==============================| Conflicts |          ORIGINAL         |          LEARNT          | Progress ||           |    Vars  Clauses Literals |    Limit  Clauses Lit/Cl |          |===============================================================================|       100 |    1591     6175   571826 |     2264      100     53 | 62.501 % |===============================================================================restarts              : 3conflicts             : 209            (379 /sec)decisions             : 475            (0.00 % random) (862 /sec)propagations          : 11669          (21178 /sec)conflict literals     : 14946          (95.10 % deleted)CPU time              : 0.551 sSATISFIABLE